SYSTEM=Al

PREC=A
ENCUT=300

ISTART=0
ICHARGE=2

ALGO=Normal
EDIFF=1e-06
NELM=128
NELMIN=6
NELMDL=-5

IBRION=2
ISIF=3
EDIFFG=-0.01
NSW=128

ISMEAR=1
SIGMA=0.22
KSPACING=0.2
KGAMMA=False
LREAL=False

PSTRESS=0.0

NPAR=4
#KPAR=1

LCHARGE=.FALSE.
LWAVE=.FALSE.
